1000
1000 1000
1 700 225
2 700 366
3 700 336
4 700 583
5 700 82
6 700 574
7 699 852
8 699 19
9 698 461
10 698 382
11 698 498
12 698 948
13 697 101
14 697 623
15 696 790
16 696 900
17 695 584
18 695 26
19 695 411
20 695 157
21 695 305
22 694 415
23 694 943
24 694 287
25 693 563
26 692 998
27 690 104
28 690 293
29 689 156
30 689 226
31 688 480
32 688 284
33 687 554
34 687 40
35 686 602
36 686 387
37 685 111
38 684 552
39 683 377
40 682 425
41 680 931
42 680 972
43 680 875
44 678 887
45 677 157
46 677 84
47 676 662
48 675 867
49 675 125
50 674 78
51 673 726
52 673 211
53 673 139
54 672 729
55 670 23
56 670 68
57 668 451
58 668 490
59 667 638
60 667 504
61 667 955
62 665 603
63 664 114
64 664 386
65 663 473
66 662 352
67 662 571
68 660 580
69 660 217
70 659 257
71 659 505
72 658 392
73 658 899
74 657 69
75 656 385
76 656 748
77 655 189
78 653 93
79 653 663
80 652 853
81 652 744
82 651 826
83 649 426
84 648 538
85 648 602
86 647 245
87 645 437
88 645 667
89 643 877
90 643 229
91 643 697
92 642 428
93 641 102
94 641 440
95 640 502
96 639 383
97 638 45
98 637 145
99 637 540
100 637 451
101 636 0
102 635 366
103 635 607
104 634 678
105 634 756
106 634 266
107 633 766
108 633 576
109 632 872
110 631 678
111 630 269
112 630 753
113 629 195
114 629 418
115 628 450
116 627 10
117 627 506
118 627 709
119 627 513
120 627 806
121 627 233
122 624 756
123 622 374
124 621 114
125 621 155
126 620 801
127 620 172
128 618 731
129 617 339
130 616 674
131 616 970
132 616 263
133 616 240
134 616 333
135 615 96
136 615 413
137 614 922
138 614 664
139 614 978
140 612 217
141 612 612
142 611 902
143 609 650
144 609 712
145 609 657
146 606 913
147 606 600
148 605 87
149 605 346
150 605 272
151 605 357
152 605 740
153 604 996
154 604 325
155 604 887
156 603 165
157 603 625
158 603 377
159 603 294
160 602 960
161 602 951
162 601 700
163 600 155
164 600 3
165 600 404
166 599 612
167 598 371
168 598 564
169 598 334
170 598 172
171 597 564
172 597 688
173 596 424
174 596 656
175 596 554
176 596 890
177 596 828
178 595 849
179 594 217
180 594 645
181 594 991
182 593 523
183 593 630
184 593 753
185 592 702
186 591 952
187 591 630
188 591 227
189 590 978
190 590 780
191 590 987
192 589 730
193 589 188
194 588 239
195 588 718
196 587 805
197 586 46
198 586 82
199 586 269
200 584 514
201 584 405
202 584 932
203 583 877
204 582 192
205 582 509
206 581 500
207 581 386
208 580 252
209 580 92
210 580 370
211 578 882
212 578 638
213 577 238
214 576 814
215 576 448
216 575 665
217 575 219
218 574 577
219 574 162
220 574 65
221 574 534
222 573 417
223 573 82
224 572 287
225 571 515
226 571 422
227 570 783
228 570 773
229 570 68
230 568 148
231 567 110
232 567 913
233 565 140
234 565 172
235 564 170
236 563 190
237 563 122
238 562 557
239 560 378
240 558 738
241 558 340
242 557 86
243 556 127
244 556 747
245 556 725
246 556 838
247 554 569
248 553 466
249 552 784
250 552 814
251 550 63
252 549 964
253 549 456
254 548 134
255 548 93
256 547 64
257 545 625
258 545 816
259 544 571
260 544 959
261 544 831
262 544 450
263 543 404
264 543 247
265 541 625
266 541 941
267 540 892
268 539 235
269 539 733
270 538 894
271 538 891
272 537 79
273 535 627
274 535 152
275 533 139
276 533 383
277 533 270
278 531 256
279 530 493
280 530 582
281 529 862
282 529 975
283 528 828
284 526 750
285 526 497
286 526 426
287 526 317
288 526 479
289 524 714
290 523 318
291 522 695
292 522 850
293 522 239
294 521 476
295 521 44
296 519 387
297 517 946
298 516 258
299 515 124
300 514 14
301 514 725
302 513 511
303 513 913
304 513 176
305 512 404
306 512 27
307 512 944
308 511 609
309 511 551
310 510 476
311 510 542
312 510 870
313 510 87
314 510 354
315 510 584
316 510 793
317 509 631
318 509 112
319 508 42
320 508 171
321 505 501
322 505 314
323 504 850
324 504 165
325 503 848
326 503 762
327 501 453
328 501 736
329 501 928
330 501 95
331 501 336
332 500 950
333 500 962
334 500 805
335 499 585
336 498 974
337 498 711
338 498 235
339 497 144
340 497 579
341 497 741
342 496 793
343 495 597
344 495 794
345 494 543
346 493 808
347 493 17
348 493 502
349 492 828
350 491 72
351 491 186
352 490 793
353 490 406
354 489 794
355 488 349
356 487 695
357 487 166
358 487 991
359 486 750
360 486 4
361 486 562
362 485 944
363 483 710
364 483 31
365 481 698
366 480 742
367 479 665
368 479 992
369 478 84
370 478 393
371 477 442
372 476 413
373 476 920
374 474 472
375 473 620
376 472 683
377 472 153
378 472 600
379 471 616
380 470 54
381 468 59
382 466 597
383 466 700
384 465 710
385 465 888
386 464 625
387 462 809
388 462 236
389 459 826
390 459 599
391 459 722
392 458 174
393 457 646
394 457 353
395 457 298
396 457 611
397 456 411
398 456 908
399 455 753
400 454 378
401 454 892
402 454 107
403 454 55
404 453 386
405 452 72
406 450 785
407 449 840
408 449 731
409 448 211
410 448 317
411 447 784
412 447 661
413 447 729
414 447 963
415 446 149
416 446 661
417 444 764
418 443 202
419 443 860
420 442 226
421 440 724
422 440 487
423 440 901
424 439 845
425 437 284
426 436 58
427 436 226
428 436 684
429 435 703
430 434 387
431 434 610
432 433 437
433 432 864
434 432 310
435 431 163
436 428 410
437 427 852
438 427 248
439 427 502
440 426 64
441 424 476
442 424 82
443 424 248
444 423 72
445 423 780
446 422 622
447 422 70
448 421 636
449 420 708
450 420 884
451 418 385
452 416 376
453 416 803
454 416 436
455 415 19
456 414 109
457 412 448
458 412 97
459 410 457
460 410 196
461 409 972
462 408 613
463 407 656
464 407 645
465 407 943
466 407 364
467 406 438
468 406 17
469 406 639
470 406 7
471 406 686
472 405 275
473 405 207
474 403 887
475 403 555
476 403 371
477 403 883
478 401 994
479 401 416
480 400 126
481 399 523
482 398 681
483 398 566
484 398 794
485 398 906
486 396 778
487 396 730
488 396 47
489 395 457
490 395 69
491 394 329
492 393 238
493 393 4
494 393 335
495 392 224
496 392 822
497 391 939
498 391 41
499 389 237
500 389 787
501 389 22
502 389 757
503 388 159
504 386 406
505 386 780
506 386 127
507 385 432
508 385 562
509 385 10
510 384 969
511 384 893
512 384 259
513 383 571
514 382 151
515 382 311
516 382 787
517 381 543
518 380 79
519 379 512
520 378 856
521 378 891
522 378 33
523 377 169
524 377 27
525 377 50
526 377 210
527 376 683
528 376 933
529 375 946
530 375 994
531 375 379
532 374 186
533 374 838
534 373 69
535 373 148
536 372 683
537 372 364
538 371 235
539 371 730
540 371 925
541 368 633
542 368 373
543 367 849
544 367 30
545 366 171
546 365 393
547 365 358
548 364 353
549 364 216
550 364 166
551 364 45
552 363 988
553 362 448
554 362 563
555 361 145
556 361 270
557 360 731
558 360 378
559 359 322
560 358 784
561 356 658
562 356 890
563 353 160
564 353 877
565 353 730
566 352 438
567 352 21
568 350 618
569 350 436
570 349 464
571 349 845
572 349 832
573 349 208
574 348 230
575 347 807
576 347 665
577 347 979
578 347 125
579 346 678
580 346 696
581 346 366
582 346 242
583 345 719
584 345 214
585 344 911
586 342 692
587 341 83
588 341 234
589 340 994
590 340 104
591 339 868
592 339 814
593 339 219
594 339 878
595 338 187
596 338 520
597 337 418
598 337 628
599 336 606
600 336 130
601 336 263
602 336 956
603 335 932
604 335 583
605 334 927
606 334 533
607 333 808
608 332 712
609 331 230
610 331 734
611 330 300
612 330 736
613 329 781
614 328 353
615 328 187
616 327 159
617 326 962
618 325 738
619 323 411
620 323 834
621 323 159
622 323 938
623 322 705
624 322 580
625 321 502
626 320 652
627 320 1000
628 320 96
629 319 404
630 319 738
631 319 391
632 319 659
633 318 125
634 317 993
635 317 391
636 317 178
637 316 823
638 315 68
639 313 360
640 313 86
641 313 709
642 311 237
643 310 879
644 309 95
645 307 316
646 307 753
647 306 273
648 305 136
649 304 312
650 303 848
651 302 604
652 302 328
653 302 605
654 302 450
655 301 679
656 298 434
657 298 946
658 297 5
659 295 452
660 293 607
661 292 335
662 292 167
663 292 589
664 291 667
665 290 580
666 290 136
667 289 343
668 289 226
669 289 797
670 289 303
671 289 586
672 289 995
673 288 979
674 287 968
675 286 374
676 286 715
677 284 923
678 284 967
679 284 164
680 284 484
681 283 27
682 283 580
683 282 706
684 281 253
685 281 782
686 281 962
687 280 410
688 280 148
689 279 252
690 279 244
691 278 472
692 278 353
693 277 539
694 277 845
695 276 519
696 276 437
697 276 671
698 276 866
699 275 537
700 275 417
701 275 635
702 274 895
703 274 603
704 272 235
705 271 882
706 271 938
707 270 918
708 269 371
709 268 46
710 268 292
711 267 553
712 267 620
713 266 965
714 266 99
715 265 653
716 265 912
717 264 603
718 264 820
719 263 720
720 261 250
721 260 308
722 260 239
723 260 667
724 258 577
725 258 15
726 258 340
727 257 784
728 256 804
729 256 476
730 254 779
731 254 663
732 253 713
733 253 126
734 252 925
735 251 672
736 249 669
737 249 763
738 249 699
739 248 746
740 248 622
741 248 191
742 247 223
743 247 333
744 247 485
745 247 130
746 246 24
747 246 387
748 244 675
749 244 22
750 243 829
751 242 482
752 242 792
753 242 822
754 242 674
755 242 986
756 242 949
757 241 834
758 240 83
759 240 27
760 239 891
761 238 32
762 237 316
763 236 269
764 236 736
765 236 728
766 236 583
767 235 529
768 234 344
769 234 818
770 234 829
771 232 789
772 232 605
773 232 839
774 232 604
775 232 640
776 232 53
777 230 422
778 228 913
779 228 48
780 227 984
781 226 870
782 226 853
783 226 560
784 226 87
785 226 25
786 225 345
787 225 337
788 225 704
789 225 92
790 225 312
791 224 467
792 223 130
793 223 143
794 223 757
795 223 502
796 221 118
797 220 301
798 218 83
799 218 80
800 218 918
801 216 128
802 216 251
803 215 806
804 215 955
805 215 263
806 214 693
807 214 339
808 214 182
809 214 279
810 213 666
811 213 16
812 212 110
813 212 548
814 212 61
815 212 652
816 211 512
817 211 247
818 211 807
819 210 733
820 209 619
821 209 769
822 209 859
823 207 956
824 206 487
825 205 179
826 204 501
827 204 844
828 204 969
829 202 438
830 202 704
831 202 527
832 200 460
833 199 29
834 198 760
835 198 661
836 198 865
837 197 937
838 197 820
839 197 223
840 192 802
841 191 331
842 191 221
843 190 215
844 189 591
845 188 908
846 188 992
847 187 688
848 187 296
849 187 850
850 186 688
851 186 862
852 185 773
853 184 418
854 183 376
855 182 616
856 181 506
857 181 579
858 180 234
859 180 434
860 179 630
861 179 675
862 179 277
863 178 265
864 177 3
865 177 949
866 177 831
867 177 562
868 176 413
869 174 893
870 173 93
871 173 822
872 173 593
873 172 433
874 172 610
875 172 749
876 172 450
877 172 608
878 171 628
879 171 918
880 170 721
881 170 719
882 170 472
883 168 316
884 167 111
885 167 768
886 166 666
887 166 779
888 166 569
889 166 899
890 164 500
891 164 31
892 163 149
893 163 286
894 163 863
895 163 613
896 162 926
897 162 514
898 161 222
899 160 335
900 159 445
901 159 235
902 159 600
903 159 706
904 159 374
905 157 898
906 156 427
907 156 782
908 156 220
909 155 239
910 155 924
911 155 462
912 155 538
913 153 284
914 153 260
915 153 528
916 152 75
917 152 208
918 151 79
919 150 713
920 150 465
921 149 603
922 149 824
923 149 895
924 148 407
925 147 828
926 146 68
927 142 915
928 141 815
929 141 51
930 141 783
931 140 144
932 139 133
933 137 398
934 137 589
935 136 103
936 135 456
937 135 735
938 135 604
939 135 586
940 134 918
941 134 805
942 133 51
943 133 490
944 133 871
945 133 454
946 132 131
947 132 345
948 131 512
949 131 263
950 131 335
951 128 548
952 126 362
953 126 568
954 126 361
955 125 155
956 125 75
957 125 509
958 124 85
959 124 898
960 124 198
961 124 993
962 124 957
963 122 142
964 122 286
965 121 794
966 121 729
967 121 88
968 121 436
969 121 846
970 119 328
971 119 314
972 119 168
973 118 467
974 118 783
975 116 552
976 116 715
977 116 174
978 115 103
979 115 704
980 115 654
981 113 944
982 113 850
983 113 219
984 112 47
985 111 435
986 110 336
987 108 363
988 108 49
989 107 39
990 106 382
991 106 708
992 105 621
993 105 951
994 105 315
995 104 608
996 104 744
997 103 85
998 103 122
999 102 631
1000 101 674
